2 4 5 6 7 11 12 16 17 18 20 21 23 25 26 28 29 30 33 34 35 36 38 39 40 41 43 45 46 47 48 49 51 56 59 61 62 65 66 69 70 73 74 76 77 80 81 82 83 84 87 89 90 93 97 98 99 100 102 103 105 110 111 112 113 116 117 118 119 121 122 126 127 128 131 132 135 136 137 139 141 143 145 148 152 153 154 157 158 159 164 166 167 168 172 175 176 177 180 181 183 184 188 189 194 196 198 200 205 206 210 211 213 215 217 219 220 221 223 224 226 227 233 239 242 244 245 246 247 248 249 251 252 253 258 260 262 263 266 268 269 273 275 277 278 279 284 287 291 294 297 298 300 302 305 306 313 314 316 318 319 321 323 326 328 329 330 331 333 334 336 340 341 342 344 346 348 349 350 351 352 353 357 359 362 363 365 368 369 372 373 375 376 377 378 380 381 382 386 389 392 395 396 397 399 400 403 404 405 406 408 410 412 415 420 422 424 426 429 432 433 436 437 439 440 441 442 447 450 459 460 461 463 464 465 466 474 475 480 481 482 483 484 485 489 491 492 495 500
